Using license file /home/anup/gurobi.lic
Academic license - for non-commercial use only
Changed value of parameter NonConvex to 2
   Prev: -1  Min: -1  Max: 2  Default: -1
Parameter NonConvex unchanged
   Value: 2  Min: -1  Max: 2  Default: -1
Model update took: 5.2928924560546875e-05 seconds
Warning: constraint name "accuracy_(0, sk_0)[0]" has a space
Gurobi Optimizer version 9.0.0 build v9.0.0rc2 (linux64)
Optimize a model with 100 rows, 112 columns and 275 nonzeros
Model fingerprint: 0x8ea2dc1a
Model has 6 quadratic constraints
Model has 5 general constraints
Variable types: 108 continuous, 4 integer (0 binary)
Coefficient statistics:
  Matrix range     [1e-04, 1e+01]
  QMatrix range    [1e+00, 1e+00]
  QLMatrix range   [1e+00, 1e+00]
  Objective range  [1e+00, 1e+00]
  Bounds range     [1e+00, 3e+04]
  RHS range        [5e-01, 5e+01]

---------------------------------------------------------------------------
Multi-objectives: starting optimization with 2 objectives ... 
---------------------------------------------------------------------------

Multi-objectives: applying initial presolve ...
---------------------------------------------------------------------------

Presolve added 0 rows and 12 columns
Presolve removed 18 rows and 0 columns
Presolve time: 0.00s
Presolved: 106 rows and 125 columns
---------------------------------------------------------------------------

Multi-objectives: optimize objective 1 (ns) ...
---------------------------------------------------------------------------

Presolve removed 57 rows and 64 columns
Presolve time: 0.00s
Presolved: 73 rows, 62 columns, 208 nonzeros
Presolved model has 6 SOS constraint(s)
Presolved model has 6 bilinear constraint(s)
Variable types: 42 continuous, 20 integer (16 binary)

Root relaxation: objective 1.020408e+01, 14 iterations, 0.00 seconds

    Nodes    |    Current Node    |     Objective Bounds      |     Work
 Expl Unexpl |  Obj  Depth IntInf | Incumbent    BestBd   Gap | It/Node Time

*    0     0               0      10.2040816   10.20408  0.00%     -    0s

Explored 0 nodes (14 simplex iterations) in 0.00 seconds
Thread count was 8 (of 8 available processors)

Solution count 1: 10.2041 

Optimal solution found (tolerance 1.00e-04)
Best objective 1.020408163265e+01, best bound 1.020408163265e+01, gap 0.0000%
---------------------------------------------------------------------------

Multi-objectives: optimize objective 2 (res) ...
---------------------------------------------------------------------------


Loaded user MIP start with objective 164.25

Presolve removed 55 rows and 62 columns
Presolve time: 0.00s
Presolved: 76 rows, 65 columns, 225 nonzeros
Presolved model has 4 bilinear constraint(s)
Found heuristic solution: objective 144.5604492
Variable types: 48 continuous, 17 integer (15 binary)

Root relaxation: objective 1.245604e+02, 27 iterations, 0.00 seconds

    Nodes    |    Current Node    |     Objective Bounds      |     Work
 Expl Unexpl |  Obj  Depth IntInf | Incumbent    BestBd   Gap | It/Node Time

*    0     0               0     124.5604492  124.56045  0.00%     -    0s

Explored 0 nodes (27 simplex iterations) in 0.01 seconds
Thread count was 8 (of 8 available processors)

Solution count 3: 124.56 144.56 164.25 

Optimal solution found (tolerance 1.00e-04)
Best objective 1.245604492188e+02, best bound 1.245604492188e+02, gap 0.0000%

---------------------------------------------------------------------------
Multi-objectives: solved in 0.01 seconds, solution count 3

Model optimize took: 0.005934476852416992 seconds

Solution quality statistics for model netmon :
  Maximum violation:
    Bound       : 0.00000000e+00
    Constraint  : 0.00000000e+00
    Integrality : 0.00000000e+00


DEBUG -----------------------

Objective: 10.714285714285715
frac[0,0] 0
frac[0,1] 0
frac[0,2] 0
frac[0,3] 0
frac[0,4] 0
frac[0,5] 0
frac[0,6] 0
frac[0,7] 0
frac[0,8] 0
frac[0,9] 0
frac[1,0] 0
frac[1,1] 0
frac[1,2] 0
frac[1,3] 0
frac[1,4] 0
frac[1,5] 0
frac[1,6] 0
frac[1,7] 0
frac[1,8] 0
frac[1,9] 0
frac[2,0] 1
frac[2,1] 1
frac[2,2] 1
frac[2,3] 1
frac[2,4] 1
frac[2,5] 1
frac[2,6] 1
frac[2,7] 1
frac[2,8] 1
frac[2,9] 1
frac[3,0] 0
frac[3,1] 0
frac[3,2] 0
frac[3,3] 0.8
frac[3,4] 0.8
frac[3,5] 0.8
frac[3,6] 0.5
frac[3,7] 0.5
frac[3,8] 0.5
frac[3,9] 0.5
mem[0,0] 0
mem[0,1] 0
mem[0,2] 0
mem[0,3] 0
mem[0,4] 0
mem[0,5] 0
mem[0,6] 0
mem[0,7] 0
mem[0,8] 0
mem[0,9] 0
mem[1,0] 0
mem[1,1] 0
mem[1,2] 0
mem[1,3] 0
mem[1,4] 0
mem[1,5] 0
mem[1,6] 0
mem[1,7] 0
mem[1,8] 0
mem[1,9] 0
mem[2,0] 0.0351562
mem[2,1] 0.0351562
mem[2,2] 0.0351562
mem[2,3] 8.49609
mem[2,4] 8.49609
mem[2,5] 8.49609
mem[2,6] 0.0195312
mem[2,7] 0.0195312
mem[2,8] 0.0195312
mem[2,9] 0.0195312
mem[3,0] 0
mem[3,1] 0
mem[3,2] 0
mem[3,3] 6.79688
mem[3,4] 6.79688
mem[3,5] 6.79688
mem[3,6] 0.00976562
mem[3,7] 0.00976562
mem[3,8] 0.00976562
mem[3,9] 0.00976562
rows_tot_cpu_1 0
mem_tot_cpu_1 0
m_access_time_cpu_1 0
ns_single_cpu_1 0
pdt_m_rows_cpu_1 0
cores_sketch_cpu_1 -0
cores_dpdk_cpu_1 6
ns_sketch_cpu_1 0
ns_dpdk_cpu_1 10.7143
ns_cpu_1 10.7143
pdt_nsk_c_cpu_1 0
pdt_nsc_dpdk_cpu_1 64.2857
rows_tot_cpu_2 0
mem_tot_cpu_2 0
m_access_time_cpu_2 0
ns_single_cpu_2 0
pdt_m_rows_cpu_2 0
cores_sketch_cpu_2 -0
cores_dpdk_cpu_2 6
ns_sketch_cpu_2 0
ns_dpdk_cpu_2 10.7143
ns_cpu_2 10.7143
pdt_nsk_c_cpu_2 0
pdt_nsc_dpdk_cpu_2 64.2857
rows_tot_p4_1 10
mem_tot_p4_1 25.6719
ns_p4_1 6.75676
rows_tot_p4_2 4.4
mem_tot_p4_2 20.4297
ns_p4_2 6.75676
ns 10.7143
res_overall 124.56
-----------------------------

Throughput: 93.33333333333333 Mpps, ns per packet: 10.714285714285715
Resources: 124.56044921875

Sketch (0) (cm: eps0: 0.3125, del0: 0.05, min_mem: 0.03515625)
Row: 1
0.000    0.000    1.000    0.000    
Total frac: 1.000
Row: 2
0.000    0.000    1.000    0.000    
Total frac: 1.000
Row: 3
0.000    0.000    1.000    0.000    
Total frac: 1.000

Sketch (1) (cm: eps0: 0.00125, del0: 0.05, min_mem: 8.49609375)
Row: 1
0.000    0.000    1.000    0.800    
Total frac: 1.800
Row: 2
0.000    0.000    1.000    0.800    
Total frac: 1.800
Row: 3
0.000    0.000    1.000    0.800    
Total frac: 1.800

Sketch (2) (cm: eps0: 0.625, del0: 0.025, min_mem: 0.01953125)
Row: 1
0.000    0.000    1.000    0.500    
Total frac: 1.500
Row: 2
0.000    0.000    1.000    0.500    
Total frac: 1.500
Row: 3
0.000    0.000    1.000    0.500    
Total frac: 1.500
Row: 4
0.000    0.000    1.000    0.500    
Total frac: 1.500
Device (0) cpu_1:
cores_sketch: -0.0, cores_dpdk: 6.0
Rows total: 0.0
Mem total: 0.0
Throughput: 93.33333333333333

Device (1) cpu_2:
cores_sketch: -0.0, cores_dpdk: 6.0
Rows total: 0.0
Mem total: 0.0
Throughput: 93.33333333333333

Device (2) p4_1:

Rows total: 10.0
Mem total: 25.671875
Throughput: 148.0

Device (3) p4_2:

Rows total: 4.4
Mem total: 20.4296875
Throughput: 148.0

